c Reduced graph for queen8_8g generated by Cyril Grelier
p edge 64 728
e 1 2
e 1 3
e 1 4
e 1 5
e 1 6
e 1 7
e 1 9
e 1 10
e 1 11
e 1 14
e 1 16
e 1 17
e 1 19
e 1 21
e 1 25
e 1 26
e 1 29
e 1 33
e 1 36
e 1 37
e 1 40
e 1 43
e 1 49
e 1 50
e 1 55
e 1 60
e 1 64
e 2 3
e 2 4
e 2 6
e 2 7
e 2 8
e 2 9
e 2 10
e 2 12
e 2 13
e 2 15
e 2 18
e 2 20
e 2 22
e 2 25
e 2 26
e 2 30
e 2 31
e 2 34
e 2 38
e 2 41
e 2 44
e 2 49
e 2 50
e 2 56
e 2 57
e 2 61
e 3 4
e 3 6
e 3 8
e 3 9
e 3 11
e 3 12
e 3 13
e 3 14
e 3 15
e 3 19
e 3 22
e 3 23
e 3 27
e 3 28
e 3 31
e 3 33
e 3 35
e 3 40
e 3 44
e 3 45
e 3 51
e 3 52
e 3 57
e 3 60
e 3 63
e 4 5
e 4 7
e 4 10
e 4 11
e 4 12
e 4 14
e 4 15
e 4 16
e 4 17
e 4 20
e 4 24
e 4 27
e 4 28
e 4 32
e 4 34
e 4 36
e 4 37
e 4 41
e 4 46
e 4 51
e 4 52
e 4 58
e 4 61
e 4 64
e 5 6
e 5 7
e 5 8
e 5 9
e 5 11
e 5 13
e 5 16
e 5 17
e 5 18
e 5 19
e 5 23
e 5 24
e 5 25
e 5 32
e 5 36
e 5 37
e 5 39
e 5 41
e 5 47
e 5 48
e 5 51
e 5 59
e 5 64
e 6 7
e 6 8
e 6 9
e 6 12
e 6 14
e 6 18
e 6 19
e 6 20
e 6 23
e 6 24
e 6 27
e 6 30
e 6 33
e 6 38
e 6 40
e 6 42
e 6 47
e 6 48
e 6 53
e 6 56
e 6 60
e 7 8
e 7 10
e 7 11
e 7 15
e 7 19
e 7 20
e 7 21
e 7 23
e 7 24
e 7 28
e 7 29
e 7 34
e 7 39
e 7 41
e 7 43
e 7 47
e 7 48
e 7 54
e 7 55
e 7 61
e 8 10
e 8 12
e 8 13
e 8 16
e 8 20
e 8 21
e 8 22
e 8 23
e 8 24
e 8 26
e 8 31
e 8 35
e 8 40
e 8 42
e 8 44
e 8 47
e 8 48
e 8 52
e 8 57
e 8 62
e 9 10
e 9 11
e 9 13
e 9 15
e 9 18
e 9 20
e 9 23
e 9 25
e 9 26
e 9 27
e 9 32
e 9 35
e 9 39
e 9 42
e 9 45
e 9 49
e 9 50
e 9 53
e 9 59
e 9 63
e 10 12
e 10 14
e 10 16
e 10 19
e 10 21
e 10 24
e 10 25
e 10 26
e 10 28
e 10 32
e 10 35
e 10 39
e 10 42
e 10 46
e 10 49
e 10 50
e 10 54
e 10 58
e 10 62
e 11 12
e 11 13
e 11 14
e 11 18
e 11 21
e 11 25
e 11 27
e 11 28
e 11 29
e 11 32
e 11 34
e 11 39
e 11 43
e 11 47
e 11 51
e 11 52
e 11 55
e 11 59
e 11 62
e 12 15
e 12 16
e 12 18
e 12 21
e 12 26
e 12 27
e 12 28
e 12 30
e 12 33
e 12 35
e 12 38
e 12 42
e 12 48
e 12 51
e 12 52
e 12 56
e 12 59
e 12 62
e 13 14
e 13 15
e 13 16
e 13 18
e 13 22
e 13 27
e 13 29
e 13 30
e 13 31
e 13 32
e 13 33
e 13 39
e 13 44
e 13 49
e 13 53
e 13 54
e 13 57
e 13 59
e 13 61
e 14 15
e 14 16
e 14 19
e 14 24
e 14 25
e 14 29
e 14 30
e 14 32
e 14 33
e 14 34
e 14 40
e 14 46
e 14 47
e 14 53
e 14 54
e 14 58
e 14 60
e 14 62
e 15 16
e 15 20
e 15 23
e 15 26
e 15 29
e 15 30
e 15 33
e 15 34
e 15 35
e 15 41
e 15 45
e 15 48
e 15 53
e 15 54
e 15 59
e 15 61
e 15 63
e 16 17
e 16 21
e 16 28
e 16 29
e 16 30
e 16 34
e 16 35
e 16 36
e 16 37
e 16 42
e 16 50
e 16 53
e 16 54
e 16 60
e 16 62
e 16 64
e 17 18
e 17 19
e 17 20
e 17 21
e 17 22
e 17 23
e 17 25
e 17 27
e 17 29
e 17 31
e 17 36
e 17 37
e 17 38
e 17 39
e 17 45
e 17 46
e 17 47
e 17 58
e 17 64
e 18 19
e 18 20
e 18 21
e 18 22
e 18 23
e 18 30
e 18 32
e 18 38
e 18 39
e 18 40
e 18 45
e 18 46
e 18 49
e 18 56
e 18 59
e 19 20
e 19 21
e 19 22
e 19 25
e 19 28
e 19 33
e 19 39
e 19 40
e 19 41
e 19 45
e 19 46
e 19 51
e 19 54
e 19 60
e 20 21
e 20 22
e 20 26
e 20 27
e 20 34
e 20 40
e 20 41
e 20 42
e 20 45
e 20 46
e 20 52
e 20 53
e 20 61
e 21 22
e 21 24
e 21 29
e 21 35
e 21 41
e 21 42
e 21 43
e 21 45
e 21 46
e 21 50
e 21 55
e 21 62
e 22 24
e 22 26
e 22 28
e 22 30
e 22 31
e 22 36
e 22 42
e 22 43
e 22 44
e 22 45
e 22 46
e 22 48
e 22 57
e 22 63
e 23 24
e 23 25
e 23 27
e 23 29
e 23 31
e 23 35
e 23 38
e 23 40
e 23 45
e 23 47
e 23 48
e 23 49
e 23 58
e 23 63
e 24 26
e 24 28
e 24 30
e 24 32
e 24 36
e 24 41
e 24 43
e 24 46
e 24 47
e 24 48
e 24 50
e 24 58
e 24 63
e 25 26
e 25 27
e 25 29
e 25 31
e 25 34
e 25 38
e 25 41
e 25 47
e 25 49
e 25 50
e 25 51
e 25 58
e 25 62
e 26 28
e 26 30
e 26 33
e 26 36
e 26 40
e 26 43
e 26 48
e 26 49
e 26 50
e 26 52
e 26 59
e 26 63
e 27 28
e 27 29
e 27 31
e 27 33
e 27 38
e 27 42
e 27 49
e 27 51
e 27 52
e 27 53
e 27 58
e 27 61
e 28 30
e 28 34
e 28 36
e 28 39
e 28 43
e 28 50
e 28 51
e 28 52
e 28 54
e 28 60
e 28 63
e 29 30
e 29 31
e 29 32
e 29 38
e 29 43
e 29 51
e 29 53
e 29 54
e 29 55
e 29 58
e 29 60
e 30 35
e 30 36
e 30 38
e 30 43
e 30 52
e 30 53
e 30 54
e 30 56
e 30 61
e 30 63
e 31 32
e 31 33
e 31 34
e 31 35
e 31 36
e 31 38
e 31 44
e 31 53
e 31 55
e 31 56
e 31 57
e 31 58
e 31 59
e 32 33
e 32 34
e 32 35
e 32 36
e 32 39
e 32 46
e 32 51
e 32 55
e 32 56
e 32 58
e 32 59
e 32 60
e 33 34
e 33 35
e 33 36
e 33 40
e 33 48
e 33 49
e 33 55
e 33 56
e 33 59
e 33 60
e 33 61
e 34 35
e 34 36
e 34 41
e 34 47
e 34 50
e 34 55
e 34 56
e 34 60
e 34 61
e 34 62
e 35 36
e 35 42
e 35 45
e 35 52
e 35 55
e 35 56
e 35 61
e 35 62
e 35 63
e 36 37
e 36 43
e 36 54
e 36 55
e 36 56
e 36 62
e 36 63
e 36 64
e 37 38
e 37 39
e 37 40
e 37 41
e 37 42
e 37 43
e 37 44
e 37 45
e 37 47
e 37 49
e 37 51
e 37 53
e 37 55
e 37 57
e 37 64
e 38 39
e 38 40
e 38 41
e 38 42
e 38 43
e 38 44
e 38 45
e 38 56
e 38 58
e 39 40
e 39 41
e 39 42
e 39 43
e 39 44
e 39 47
e 39 54
e 39 59
e 40 41
e 40 42
e 40 43
e 40 44
e 40 49
e 40 52
e 40 60
e 41 42
e 41 43
e 41 44
e 41 50
e 41 51
e 41 61
e 42 43
e 42 44
e 42 48
e 42 53
e 42 62
e 43 44
e 43 46
e 43 55
e 43 63
e 44 46
e 44 48
e 44 50
e 44 52
e 44 54
e 44 56
e 44 57
e 44 64
e 45 46
e 45 47
e 45 49
e 45 51
e 45 53
e 45 55
e 45 57
e 45 63
e 46 48
e 46 50
e 46 52
e 46 54
e 46 56
e 46 58
e 46 64
e 47 48
e 47 49
e 47 51
e 47 53
e 47 55
e 47 57
e 47 62
e 48 50
e 48 52
e 48 54
e 48 56
e 48 59
e 48 64
e 49 50
e 49 51
e 49 53
e 49 55
e 49 57
e 49 61
e 50 52
e 50 54
e 50 56
e 50 60
e 50 64
e 51 52
e 51 53
e 51 55
e 51 57
e 51 60
e 52 54
e 52 56
e 52 61
e 52 64
e 53 54
e 53 55
e 53 57
e 53 59
e 54 56
e 54 62
e 54 64
e 55 56
e 55 57
e 55 58
e 56 63
e 56 64
e 57 58
e 57 59
e 57 60
e 57 61
e 57 62
e 57 63
e 57 64
e 58 59
e 58 60
e 58 61
e 58 62
e 58 63
e 58 64
e 59 60
e 59 61
e 59 62
e 59 63
e 59 64
e 60 61
e 60 62
e 60 63
e 60 64
e 61 62
e 61 63
e 61 64
e 62 63
e 62 64
e 63 64
